data/solutions/recovery/degenerate/intermediate/binding/degenerate_intermediate_instance37/50.sol
Elapsed time: 0.03
Upper bound: 191402.0
Planning weighted value: 8326981731.0
C[0]=191402.0
C[1]=189549.0
C[2]=189336.0
C[3]=187417.0
C[4]=182951.0
C[5]=175863.0
C[6]=169757.0
C[7]=168474.0
C[8]=167818.0
C[9]=161893.0
C[10]=126870.0
C[11]=126463.0
C[12]=126357.0
C[13]=125858.0
C[14]=0.0
C[15]=0.0
y[0]=10
y[1]=2
y[2]=5
y[3]=13
y[4]=12
y[5]=2
y[6]=2
y[7]=3
y[8]=4
y[9]=11
y[10]=4
y[11]=6
y[12]=9
y[13]=1
y[14]=11
y[15]=4
y[16]=4
y[17]=4
y[18]=1
y[19]=3
y[20]=0
y[21]=3
y[22]=2
y[23]=6
y[24]=11
y[25]=7
y[26]=3
y[27]=8
y[28]=5
y[29]=2
y[30]=9
y[31]=13
y[32]=3
y[33]=10
y[34]=1
y[35]=5
y[36]=11
y[37]=10
y[38]=10
y[39]=8
y[40]=4
y[41]=12
y[42]=9
y[43]=3
y[44]=5
y[45]=6
y[46]=13
y[47]=7
y[48]=9
y[49]=9
y[50]=8
y[51]=0
y[52]=7
y[53]=12
y[54]=12
y[55]=6
y[56]=5
y[57]=0
y[58]=13
y[59]=13
y[60]=4
y[61]=6
y[62]=0
y[63]=7
y[64]=8
